p cnf 216 966
52 0
-75 0
-91 -70 0
91 70 0
121 0
-144 0
-25 -187 0
25 187 0
90 0
-57 0
-169 -17 0
169 17 0
76 0
-37 0
-142 -205 0
142 205 0
206 203 78 82 99 163 36 188 0
-206 -203 0
-206 -78 0
-206 -82 0
-206 -99 0
-206 -163 0
-206 -36 0
-206 -188 0
-203 -78 0
-203 -82 0
-203 -99 0
-203 -163 0
-203 -36 0
-203 -188 0
-78 -82 0
-78 -99 0
-78 -163 0
-78 -36 0
-78 -188 0
-82 -99 0
-82 -163 0
-82 -36 0
-82 -188 0
-99 -163 0
-99 -36 0
-99 -188 0
-163 -36 0
-163 -188 0
-36 -188 0
190 126 35 193 58 67 157 158 0
-190 -126 0
-190 -35 0
-190 -193 0
-190 -58 0
-190 -67 0
-190 -157 0
-190 -158 0
-126 -35 0
-126 -193 0
-126 -58 0
-126 -67 0
-126 -157 0
-126 -158 0
-35 -193 0
-35 -58 0
-35 -67 0
-35 -157 0
-35 -158 0
-193 -58 0
-193 -67 0
-193 -157 0
-193 -158 0
-58 -67 0
-58 -157 0
-58 -158 0
-67 -157 0
-67 -158 0
-157 -158 0
208 38 88 63 123 43 140 138 0
-208 -38 0
-208 -88 0
-208 -63 0
-208 -123 0
-208 -43 0
-208 -140 0
-208 -138 0
-38 -88 0
-38 -63 0
-38 -123 0
-38 -43 0
-38 -140 0
-38 -138 0
-88 -63 0
-88 -123 0
-88 -43 0
-88 -140 0
-88 -138 0
-63 -123 0
-63 -43 0
-63 -140 0
-63 -138 0
-123 -43 0
-123 -140 0
-123 -138 0
-43 -140 0
-43 -138 0
-140 -138 0
44 48 104 39 110 21 132 184 0
-44 -48 0
-44 -104 0
-44 -39 0
-44 -110 0
-44 -21 0
-44 -132 0
-44 -184 0
-48 -104 0
-48 -39 0
-48 -110 0
-48 -21 0
-48 -132 0
-48 -184 0
-104 -39 0
-104 -110 0
-104 -21 0
-104 -132 0
-104 -184 0
-39 -110 0
-39 -21 0
-39 -132 0
-39 -184 0
-110 -21 0
-110 -132 0
-110 -184 0
-21 -132 0
-21 -184 0
-132 -184 0
60 11 141 145 207 53 40 191 0
-60 -11 0
-60 -141 0
-60 -145 0
-60 -207 0
-60 -53 0
-60 -40 0
-60 -191 0
-11 -141 0
-11 -145 0
-11 -207 0
-11 -53 0
-11 -40 0
-11 -191 0
-141 -145 0
-141 -207 0
-141 -53 0
-141 -40 0
-141 -191 0
-145 -207 0
-145 -53 0
-145 -40 0
-145 -191 0
-207 -53 0
-207 -40 0
-207 -191 0
-53 -40 0
-53 -191 0
-40 -191 0
109 86 81 209 100 200 204 122 0
-109 -86 0
-109 -81 0
-109 -209 0
-109 -100 0
-109 -200 0
-109 -204 0
-109 -122 0
-86 -81 0
-86 -209 0
-86 -100 0
-86 -200 0
-86 -204 0
-86 -122 0
-81 -209 0
-81 -100 0
-81 -200 0
-81 -204 0
-81 -122 0
-209 -100 0
-209 -200 0
-209 -204 0
-209 -122 0
-100 -200 0
-100 -204 0
-100 -122 0
-200 -204 0
-200 -122 0
-204 -122 0
28 155 202 10 199 34 5 49 0
-28 -155 0
-28 -202 0
-28 -10 0
-28 -199 0
-28 -34 0
-28 -5 0
-28 -49 0
-155 -202 0
-155 -10 0
-155 -199 0
-155 -34 0
-155 -5 0
-155 -49 0
-202 -10 0
-202 -199 0
-202 -34 0
-202 -5 0
-202 -49 0
-10 -199 0
-10 -34 0
-10 -5 0
-10 -49 0
-199 -34 0
-199 -5 0
-199 -49 0
-34 -5 0
-34 -49 0
-5 -49 0
6 89 42 111 137 112 103 3 0
-6 -89 0
-6 -42 0
-6 -111 0
-6 -137 0
-6 -112 0
-6 -103 0
-6 -3 0
-89 -42 0
-89 -111 0
-89 -137 0
-89 -112 0
-89 -103 0
-89 -3 0
-42 -111 0
-42 -137 0
-42 -112 0
-42 -103 0
-42 -3 0
-111 -137 0
-111 -112 0
-111 -103 0
-111 -3 0
-137 -112 0
-137 -103 0
-137 -3 0
-112 -103 0
-112 -3 0
-103 -3 0
148 50 186 7 0
-148 -50 0
-148 -186 0
-148 -7 0
-50 -186 0
-50 -7 0
-186 -7 0
98 22 156 210 0
-98 -22 0
-98 -156 0
-98 -210 0
-22 -156 0
-22 -210 0
-156 -210 0
-30 0
-177 0
-176 0
-47 0
-216 0
-8 0
-180 0
-130 0
149 0
29 0
94 0
106 0
46 0
27 0
129 0
105 0
-97 0
-153 0
-32 0
-164 0
134 0
113 0
55 0
118 0
-161 0
-59 0
-150 0
-151 0
213 0
154 0
72 0
165 0
-24 0
-62 0
71 0
19 0
-160 0
-127 0
33 0
117 0
-162 0
-131 0
87 0
178 0
-189 0
-66 0
128 0
64 0
-31 0
83 0
-41 0
170 0
-13 0
143 0
-80 0
114 0
-92 0
174 0
-173 0
147 0
-139 0
65 0
-101 0
182 0
-207 -200 179 214 51 -90 0
-207 -200 179 214 -51 90 0
-207 -200 179 -214 51 -169 0
-207 -200 179 -214 -51 169 0
-207 -200 -179 214 51 -57 0
-207 -200 -179 214 -51 57 0
-207 -200 -179 -214 51 -17 0
-207 -200 -179 -214 -51 17 0
-207 -200 16 196 77 -90 0
-207 -200 16 196 -77 90 0
-207 -200 16 -196 77 -169 0
-207 -200 16 -196 -77 169 0
-207 -200 -16 196 77 -57 0
-207 -200 -16 196 -77 57 0
-207 -200 -16 -196 77 -17 0
-207 -200 -16 -196 -77 17 0
-207 -200 120 116 26 -90 0
-207 -200 120 116 -26 90 0
-207 -200 120 -116 26 -169 0
-207 -200 120 -116 -26 169 0
-207 -200 -120 116 26 -57 0
-207 -200 -120 116 -26 57 0
-207 -200 -120 -116 26 -17 0
-207 -200 -120 -116 -26 17 0
-207 -200 195 2 136 -90 0
-207 -200 195 2 -136 90 0
-207 -200 195 -2 136 -169 0
-207 -200 195 -2 -136 169 0
-207 -200 -195 2 136 -57 0
-207 -200 -195 2 -136 57 0
-207 -200 -195 -2 136 -17 0
-207 -200 -195 -2 -136 17 0
-207 -200 79 73 124 -90 0
-207 -200 79 73 -124 90 0
-207 -200 79 -73 124 -169 0
-207 -200 79 -73 -124 169 0
-207 -200 -79 73 124 -57 0
-207 -200 -79 73 -124 57 0
-207 -200 -79 -73 124 -17 0
-207 -200 -79 -73 -124 17 0
-207 -200 183 96 18 -90 0
-207 -200 183 96 -18 90 0
-207 -200 183 -96 18 -169 0
-207 -200 183 -96 -18 169 0
-207 -200 -183 96 18 -57 0
-207 -200 -183 96 -18 57 0
-207 -200 -183 -96 18 -17 0
-207 -200 -183 -96 -18 17 0
-207 -200 23 68 166 -90 0
-207 -200 23 68 -166 90 0
-207 -200 23 -68 166 -169 0
-207 -200 23 -68 -166 169 0
-207 -200 -23 68 166 -57 0
-207 -200 -23 68 -166 57 0
-207 -200 -23 -68 166 -17 0
-207 -200 -23 -68 -166 17 0
-207 -200 107 168 84 -90 0
-207 -200 107 168 -84 90 0
-207 -200 107 -168 84 -169 0
-207 -200 107 -168 -84 169 0
-207 -200 -107 168 84 -57 0
-207 -200 -107 168 -84 57 0
-207 -200 -107 -168 84 -17 0
-207 -200 -107 -168 -84 17 0
-207 -200 198 211 14 -90 0
-207 -200 198 211 -14 90 0
-207 -200 198 -211 14 -169 0
-207 -200 198 -211 -14 169 0
-207 -200 -198 211 14 -57 0
-207 -200 -198 211 -14 57 0
-207 -200 -198 -211 14 -17 0
-207 -200 -198 -211 -14 17 0
-207 -200 1 93 69 -90 0
-207 -200 1 93 -69 90 0
-207 -200 1 -93 69 -169 0
-207 -200 1 -93 -69 169 0
-207 -200 -1 93 69 -57 0
-207 -200 -1 93 -69 57 0
-207 -200 -1 -93 69 -17 0
-207 -200 -1 -93 -69 17 0
-207 -200 12 201 194 -90 0
-207 -200 12 201 -194 90 0
-207 -200 12 -201 194 -169 0
-207 -200 12 -201 -194 169 0
-207 -200 -12 201 194 -57 0
-207 -200 -12 201 -194 57 0
-207 -200 -12 -201 194 -17 0
-207 -200 -12 -201 -194 17 0
-207 -200 175 108 4 -90 0
-207 -200 175 108 -4 90 0
-207 -200 175 -108 4 -169 0
-207 -200 175 -108 -4 169 0
-207 -200 -175 108 4 -57 0
-207 -200 -175 108 -4 57 0
-207 -200 -175 -108 4 -17 0
-207 -200 -175 -108 -4 17 0
-207 -200 146 135 159 -90 0
-207 -200 146 135 -159 90 0
-207 -200 146 -135 159 -169 0
-207 -200 146 -135 -159 169 0
-207 -200 -146 135 159 -57 0
-207 -200 -146 135 -159 57 0
-207 -200 -146 -135 159 -17 0
-207 -200 -146 -135 -159 17 0
-207 -200 102 215 56 -90 0
-207 -200 102 215 -56 90 0
-207 -200 102 -215 56 -169 0
-207 -200 102 -215 -56 169 0
-207 -200 -102 215 56 -57 0
-207 -200 -102 215 -56 57 0
-207 -200 -102 -215 56 -17 0
-207 -200 -102 -215 -56 17 0
-207 -200 54 192 74 -90 0
-207 -200 54 192 -74 90 0
-207 -200 54 -192 74 -169 0
-207 -200 54 -192 -74 169 0
-207 -200 -54 192 74 -57 0
-207 -200 -54 192 -74 57 0
-207 -200 -54 -192 74 -17 0
-207 -200 -54 -192 -74 17 0
-207 -200 152 61 15 -90 0
-207 -200 152 61 -15 90 0
-207 -200 152 -61 15 -169 0
-207 -200 152 -61 -15 169 0
-207 -200 -152 61 15 -57 0
-207 -200 -152 61 -15 57 0
-207 -200 -152 -61 15 -17 0
-207 -200 -152 -61 -15 17 0
-199 -112 179 214 125 -76 0
-199 -112 179 214 -125 76 0
-199 -103 179 51 125 -76 0
-199 -103 179 51 -125 76 0
-34 -103 214 51 125 -76 0
-34 -103 214 51 -125 76 0
-199 -112 179 -214 125 -142 0
-199 -112 179 -214 -125 142 0
-199 -103 179 -51 125 -142 0
-199 -103 179 -51 -125 142 0
-34 -103 214 -51 125 -142 0
-34 -103 214 -51 -125 142 0
-199 -112 -179 214 125 -37 0
-199 -112 -179 214 -125 37 0
-199 -103 -179 51 125 -37 0
-199 -103 -179 51 -125 37 0
-34 -103 -214 51 125 -37 0
-34 -103 -214 51 -125 37 0
-199 -112 -179 -214 125 -205 0
-199 -112 -179 -214 -125 205 0
-199 -103 -179 -51 125 -205 0
-199 -103 -179 -51 -125 205 0
-34 -103 -214 -51 125 -205 0
-34 -103 -214 -51 -125 205 0
-199 -112 16 196 212 -76 0
-199 -112 16 196 -212 76 0
-199 -103 16 77 212 -76 0
-199 -103 16 77 -212 76 0
-34 -103 196 77 212 -76 0
-34 -103 196 77 -212 76 0
-199 -112 16 -196 212 -142 0
-199 -112 16 -196 -212 142 0
-199 -103 16 -77 212 -142 0
-199 -103 16 -77 -212 142 0
-34 -103 196 -77 212 -142 0
-34 -103 196 -77 -212 142 0
-199 -112 -16 196 212 -37 0
-199 -112 -16 196 -212 37 0
-199 -103 -16 77 212 -37 0
-199 -103 -16 77 -212 37 0
-34 -103 -196 77 212 -37 0
-34 -103 -196 77 -212 37 0
-199 -112 -16 -196 212 -205 0
-199 -112 -16 -196 -212 205 0
-199 -103 -16 -77 212 -205 0
-199 -103 -16 -77 -212 205 0
-34 -103 -196 -77 212 -205 0
-34 -103 -196 -77 -212 205 0
-199 -112 120 116 95 -76 0
-199 -112 120 116 -95 76 0
-199 -103 120 26 95 -76 0
-199 -103 120 26 -95 76 0
-34 -103 116 26 95 -76 0
-34 -103 116 26 -95 76 0
-199 -112 120 -116 95 -142 0
-199 -112 120 -116 -95 142 0
-199 -103 120 -26 95 -142 0
-199 -103 120 -26 -95 142 0
-34 -103 116 -26 95 -142 0
-34 -103 116 -26 -95 142 0
-199 -112 -120 116 95 -37 0
-199 -112 -120 116 -95 37 0
-199 -103 -120 26 95 -37 0
-199 -103 -120 26 -95 37 0
-34 -103 -116 26 95 -37 0
-34 -103 -116 26 -95 37 0
-199 -112 -120 -116 95 -205 0
-199 -112 -120 -116 -95 205 0
-199 -103 -120 -26 95 -205 0
-199 -103 -120 -26 -95 205 0
-34 -103 -116 -26 95 -205 0
-34 -103 -116 -26 -95 205 0
-199 -112 195 2 167 -76 0
-199 -112 195 2 -167 76 0
-199 -103 195 136 167 -76 0
-199 -103 195 136 -167 76 0
-34 -103 2 136 167 -76 0
-34 -103 2 136 -167 76 0
-199 -112 195 -2 167 -142 0
-199 -112 195 -2 -167 142 0
-199 -103 195 -136 167 -142 0
-199 -103 195 -136 -167 142 0
-34 -103 2 -136 167 -142 0
-34 -103 2 -136 -167 142 0
-199 -112 -195 2 167 -37 0
-199 -112 -195 2 -167 37 0
-199 -103 -195 136 167 -37 0
-199 -103 -195 136 -167 37 0
-34 -103 -2 136 167 -37 0
-34 -103 -2 136 -167 37 0
-199 -112 -195 -2 167 -205 0
-199 -112 -195 -2 -167 205 0
-199 -103 -195 -136 167 -205 0
-199 -103 -195 -136 -167 205 0
-34 -103 -2 -136 167 -205 0
-34 -103 -2 -136 -167 205 0
-199 -112 79 73 115 -76 0
-199 -112 79 73 -115 76 0
-199 -103 79 124 115 -76 0
-199 -103 79 124 -115 76 0
-34 -103 73 124 115 -76 0
-34 -103 73 124 -115 76 0
-199 -112 79 -73 115 -142 0
-199 -112 79 -73 -115 142 0
-199 -103 79 -124 115 -142 0
-199 -103 79 -124 -115 142 0
-34 -103 73 -124 115 -142 0
-34 -103 73 -124 -115 142 0
-199 -112 -79 73 115 -37 0
-199 -112 -79 73 -115 37 0
-199 -103 -79 124 115 -37 0
-199 -103 -79 124 -115 37 0
-34 -103 -73 124 115 -37 0
-34 -103 -73 124 -115 37 0
-199 -112 -79 -73 115 -205 0
-199 -112 -79 -73 -115 205 0
-199 -103 -79 -124 115 -205 0
-199 -103 -79 -124 -115 205 0
-34 -103 -73 -124 115 -205 0
-34 -103 -73 -124 -115 205 0
-199 -112 183 96 133 -76 0
-199 -112 183 96 -133 76 0
-199 -103 183 18 133 -76 0
-199 -103 183 18 -133 76 0
-34 -103 96 18 133 -76 0
-34 -103 96 18 -133 76 0
-199 -112 183 -96 133 -142 0
-199 -112 183 -96 -133 142 0
-199 -103 183 -18 133 -142 0
-199 -103 183 -18 -133 142 0
-34 -103 96 -18 133 -142 0
-34 -103 96 -18 -133 142 0
-199 -112 -183 96 133 -37 0
-199 -112 -183 96 -133 37 0
-199 -103 -183 18 133 -37 0
-199 -103 -183 18 -133 37 0
-34 -103 -96 18 133 -37 0
-34 -103 -96 18 -133 37 0
-199 -112 -183 -96 133 -205 0
-199 -112 -183 -96 -133 205 0
-199 -103 -183 -18 133 -205 0
-199 -103 -183 -18 -133 205 0
-34 -103 -96 -18 133 -205 0
-34 -103 -96 -18 -133 205 0
-199 -112 23 68 119 -76 0
-199 -112 23 68 -119 76 0
-199 -103 23 166 119 -76 0
-199 -103 23 166 -119 76 0
-34 -103 68 166 119 -76 0
-34 -103 68 166 -119 76 0
-199 -112 23 -68 119 -142 0
-199 -112 23 -68 -119 142 0
-199 -103 23 -166 119 -142 0
-199 -103 23 -166 -119 142 0
-34 -103 68 -166 119 -142 0
-34 -103 68 -166 -119 142 0
-199 -112 -23 68 119 -37 0
-199 -112 -23 68 -119 37 0
-199 -103 -23 166 119 -37 0
-199 -103 -23 166 -119 37 0
-34 -103 -68 166 119 -37 0
-34 -103 -68 166 -119 37 0
-199 -112 -23 -68 119 -205 0
-199 -112 -23 -68 -119 205 0
-199 -103 -23 -166 119 -205 0
-199 -103 -23 -166 -119 205 0
-34 -103 -68 -166 119 -205 0
-34 -103 -68 -166 -119 205 0
-199 -112 107 168 85 -76 0
-199 -112 107 168 -85 76 0
-199 -103 107 84 85 -76 0
-199 -103 107 84 -85 76 0
-34 -103 168 84 85 -76 0
-34 -103 168 84 -85 76 0
-199 -112 107 -168 85 -142 0
-199 -112 107 -168 -85 142 0
-199 -103 107 -84 85 -142 0
-199 -103 107 -84 -85 142 0
-34 -103 168 -84 85 -142 0
-34 -103 168 -84 -85 142 0
-199 -112 -107 168 85 -37 0
-199 -112 -107 168 -85 37 0
-199 -103 -107 84 85 -37 0
-199 -103 -107 84 -85 37 0
-34 -103 -168 84 85 -37 0
-34 -103 -168 84 -85 37 0
-199 -112 -107 -168 85 -205 0
-199 -112 -107 -168 -85 205 0
-199 -103 -107 -84 85 -205 0
-199 -103 -107 -84 -85 205 0
-34 -103 -168 -84 85 -205 0
-34 -103 -168 -84 -85 205 0
-199 -112 198 211 181 -76 0
-199 -112 198 211 -181 76 0
-199 -103 198 14 181 -76 0
-199 -103 198 14 -181 76 0
-34 -103 211 14 181 -76 0
-34 -103 211 14 -181 76 0
-199 -112 198 -211 181 -142 0
-199 -112 198 -211 -181 142 0
-199 -103 198 -14 181 -142 0
-199 -103 198 -14 -181 142 0
-34 -103 211 -14 181 -142 0
-34 -103 211 -14 -181 142 0
-199 -112 -198 211 181 -37 0
-199 -112 -198 211 -181 37 0
-199 -103 -198 14 181 -37 0
-199 -103 -198 14 -181 37 0
-34 -103 -211 14 181 -37 0
-34 -103 -211 14 -181 37 0
-199 -112 -198 -211 181 -205 0
-199 -112 -198 -211 -181 205 0
-199 -103 -198 -14 181 -205 0
-199 -103 -198 -14 -181 205 0
-34 -103 -211 -14 181 -205 0
-34 -103 -211 -14 -181 205 0
-199 -112 1 93 20 -76 0
-199 -112 1 93 -20 76 0
-199 -103 1 69 20 -76 0
-199 -103 1 69 -20 76 0
-34 -103 93 69 20 -76 0
-34 -103 93 69 -20 76 0
-199 -112 1 -93 20 -142 0
-199 -112 1 -93 -20 142 0
-199 -103 1 -69 20 -142 0
-199 -103 1 -69 -20 142 0
-34 -103 93 -69 20 -142 0
-34 -103 93 -69 -20 142 0
-199 -112 -1 93 20 -37 0
-199 -112 -1 93 -20 37 0
-199 -103 -1 69 20 -37 0
-199 -103 -1 69 -20 37 0
-34 -103 -93 69 20 -37 0
-34 -103 -93 69 -20 37 0
-199 -112 -1 -93 20 -205 0
-199 -112 -1 -93 -20 205 0
-199 -103 -1 -69 20 -205 0
-199 -103 -1 -69 -20 205 0
-34 -103 -93 -69 20 -205 0
-34 -103 -93 -69 -20 205 0
-199 -112 12 201 171 -76 0
-199 -112 12 201 -171 76 0
-199 -103 12 194 171 -76 0
-199 -103 12 194 -171 76 0
-34 -103 201 194 171 -76 0
-34 -103 201 194 -171 76 0
-199 -112 12 -201 171 -142 0
-199 -112 12 -201 -171 142 0
-199 -103 12 -194 171 -142 0
-199 -103 12 -194 -171 142 0
-34 -103 201 -194 171 -142 0
-34 -103 201 -194 -171 142 0
-199 -112 -12 201 171 -37 0
-199 -112 -12 201 -171 37 0
-199 -103 -12 194 171 -37 0
-199 -103 -12 194 -171 37 0
-34 -103 -201 194 171 -37 0
-34 -103 -201 194 -171 37 0
-199 -112 -12 -201 171 -205 0
-199 -112 -12 -201 -171 205 0
-199 -103 -12 -194 171 -205 0
-199 -103 -12 -194 -171 205 0
-34 -103 -201 -194 171 -205 0
-34 -103 -201 -194 -171 205 0
-199 -112 175 108 197 -76 0
-199 -112 175 108 -197 76 0
-199 -103 175 4 197 -76 0
-199 -103 175 4 -197 76 0
-34 -103 108 4 197 -76 0
-34 -103 108 4 -197 76 0
-199 -112 175 -108 197 -142 0
-199 -112 175 -108 -197 142 0
-199 -103 175 -4 197 -142 0
-199 -103 175 -4 -197 142 0
-34 -103 108 -4 197 -142 0
-34 -103 108 -4 -197 142 0
-199 -112 -175 108 197 -37 0
-199 -112 -175 108 -197 37 0
-199 -103 -175 4 197 -37 0
-199 -103 -175 4 -197 37 0
-34 -103 -108 4 197 -37 0
-34 -103 -108 4 -197 37 0
-199 -112 -175 -108 197 -205 0
-199 -112 -175 -108 -197 205 0
-199 -103 -175 -4 197 -205 0
-199 -103 -175 -4 -197 205 0
-34 -103 -108 -4 197 -205 0
-34 -103 -108 -4 -197 205 0
-199 -112 146 135 185 -76 0
-199 -112 146 135 -185 76 0
-199 -103 146 159 185 -76 0
-199 -103 146 159 -185 76 0
-34 -103 135 159 185 -76 0
-34 -103 135 159 -185 76 0
-199 -112 146 -135 185 -142 0
-199 -112 146 -135 -185 142 0
-199 -103 146 -159 185 -142 0
-199 -103 146 -159 -185 142 0
-34 -103 135 -159 185 -142 0
-34 -103 135 -159 -185 142 0
-199 -112 -146 135 185 -37 0
-199 -112 -146 135 -185 37 0
-199 -103 -146 159 185 -37 0
-199 -103 -146 159 -185 37 0
-34 -103 -135 159 185 -37 0
-34 -103 -135 159 -185 37 0
-199 -112 -146 -135 185 -205 0
-199 -112 -146 -135 -185 205 0
-199 -103 -146 -159 185 -205 0
-199 -103 -146 -159 -185 205 0
-34 -103 -135 -159 185 -205 0
-34 -103 -135 -159 -185 205 0
-199 -112 102 215 9 -76 0
-199 -112 102 215 -9 76 0
-199 -103 102 56 9 -76 0
-199 -103 102 56 -9 76 0
-34 -103 215 56 9 -76 0
-34 -103 215 56 -9 76 0
-199 -112 102 -215 9 -142 0
-199 -112 102 -215 -9 142 0
-199 -103 102 -56 9 -142 0
-199 -103 102 -56 -9 142 0
-34 -103 215 -56 9 -142 0
-34 -103 215 -56 -9 142 0
-199 -112 -102 215 9 -37 0
-199 -112 -102 215 -9 37 0
-199 -103 -102 56 9 -37 0
-199 -103 -102 56 -9 37 0
-34 -103 -215 56 9 -37 0
-34 -103 -215 56 -9 37 0
-199 -112 -102 -215 9 -205 0
-199 -112 -102 -215 -9 205 0
-199 -103 -102 -56 9 -205 0
-199 -103 -102 -56 -9 205 0
-34 -103 -215 -56 9 -205 0
-34 -103 -215 -56 -9 205 0
-199 -112 54 192 45 -76 0
-199 -112 54 192 -45 76 0
-199 -103 54 74 45 -76 0
-199 -103 54 74 -45 76 0
-34 -103 192 74 45 -76 0
-34 -103 192 74 -45 76 0
-199 -112 54 -192 45 -142 0
-199 -112 54 -192 -45 142 0
-199 -103 54 -74 45 -142 0
-199 -103 54 -74 -45 142 0
-34 -103 192 -74 45 -142 0
-34 -103 192 -74 -45 142 0
-199 -112 -54 192 45 -37 0
-199 -112 -54 192 -45 37 0
-199 -103 -54 74 45 -37 0
-199 -103 -54 74 -45 37 0
-34 -103 -192 74 45 -37 0
-34 -103 -192 74 -45 37 0
-199 -112 -54 -192 45 -205 0
-199 -112 -54 -192 -45 205 0
-199 -103 -54 -74 45 -205 0
-199 -103 -54 -74 -45 205 0
-34 -103 -192 -74 45 -205 0
-34 -103 -192 -74 -45 205 0
-199 -112 152 61 172 -76 0
-199 -112 152 61 -172 76 0
-199 -103 152 15 172 -76 0
-199 -103 152 15 -172 76 0
-34 -103 61 15 172 -76 0
-34 -103 61 15 -172 76 0
-199 -112 152 -61 172 -142 0
-199 -112 152 -61 -172 142 0
-199 -103 152 -15 172 -142 0
-199 -103 152 -15 -172 142 0
-34 -103 61 -15 172 -142 0
-34 -103 61 -15 -172 142 0
-199 -112 -152 61 172 -37 0
-199 -112 -152 61 -172 37 0
-199 -103 -152 15 172 -37 0
-199 -103 -152 15 -172 37 0
-34 -103 -61 15 172 -37 0
-34 -103 -61 15 -172 37 0
-199 -112 -152 -61 172 -205 0
-199 -112 -152 -61 -172 205 0
-199 -103 -152 -15 172 -205 0
-199 -103 -152 -15 -172 205 0
-34 -103 -61 -15 172 -205 0
-34 -103 -61 -15 -172 205 0
-148 -179 0
-98 179 0
-148 -16 0
-98 16 0
-148 -120 0
-98 120 0
-148 -195 0
-98 195 0
-148 -79 0
-98 79 0
-148 -183 0
-98 183 0
-148 -23 0
-98 23 0
-148 -107 0
-98 107 0
-148 -198 0
-98 198 0
-148 -1 0
-98 1 0
-148 -12 0
-98 12 0
-148 -175 0
-98 175 0
-148 -146 0
-98 146 0
-148 -102 0
-98 102 0
-148 -54 0
-98 54 0
-148 -152 0
-98 152 0
-50 -214 0
-22 214 0
-50 -196 0
-22 196 0
-50 -116 0
-22 116 0
-50 -2 0
-22 2 0
-50 -73 0
-22 73 0
-50 -96 0
-22 96 0
-50 -68 0
-22 68 0
-50 -168 0
-22 168 0
-50 -211 0
-22 211 0
-50 -93 0
-22 93 0
-50 -201 0
-22 201 0
-50 -108 0
-22 108 0
-50 -135 0
-22 135 0
-50 -215 0
-22 215 0
-50 -192 0
-22 192 0
-50 -61 0
-22 61 0
-186 -51 0
-156 51 0
-186 -77 0
-156 77 0
-186 -26 0
-156 26 0
-186 -136 0
-156 136 0
-186 -124 0
-156 124 0
-186 -18 0
-156 18 0
-186 -166 0
-156 166 0
-186 -84 0
-156 84 0
-186 -14 0
-156 14 0
-186 -69 0
-156 69 0
-186 -194 0
-156 194 0
-186 -4 0
-156 4 0
-186 -159 0
-156 159 0
-186 -56 0
-156 56 0
-186 -74 0
-156 74 0
-186 -15 0
-156 15 0
-7 -125 0
-210 125 0
-7 -212 0
-210 212 0
-7 -95 0
-210 95 0
-7 -167 0
-210 167 0
-7 -115 0
-210 115 0
-7 -133 0
-210 133 0
-7 -119 0
-210 119 0
-7 -85 0
-210 85 0
-7 -181 0
-210 181 0
-7 -20 0
-210 20 0
-7 -171 0
-210 171 0
-7 -197 0
-210 197 0
-7 -185 0
-210 185 0
-7 -9 0
-210 9 0
-7 -45 0
-210 45 0
-7 -172 0
-210 172 0
